2 20
514 579 
0 63 64 74 82 22 72 2
1 84 92 23 27 95 92 1
2 8 6 85 77 17 78 2
3 82 91 41 38 26 28 1
4 72 72 18 23 69 80 2
5 23 22 70 68 40 14 2
6 3 5 24 32 22 60 1
7 102 100 32 38 19 11 1
8 46 37 2 4 76 57 2
9 89 90 53 45 86 8 2
10 23 28 72 74 72 43 2
11 42 51 56 62 75 78 1
12 34 40 91 91 88 3 1
13 91 88 41 35 90 59 1
14 55 57 85 91 35 55 2
15 80 77 104 99 10 23 2
16 1 5 83 84 88 50 2
17 95 88 87 83 60 76 1
18 6 9 35 32 6 42 2
19 14 6 66 73 19 25 2
